
===== New CPLEX run =====
Instance: /home/yorig/tuner/mpils-tests/instances/miplib/easy/mas74.mps
Config: /scratch/yorig/mpils-results-grid-seconds-5-watchdog/easy/8proc/seed-2/5_mas74_seed-2_20260504_031955/expansion/config_param_CPXPARAM_Simplex_PGradient_4_iter_3.prm
========================

Selected objective sense:  MINIMIZE
Selected objective  name:  obj
Selected RHS        name:  rhs
Selected bound      name:  bnd
Wall watchdog: enabled factor=1 grace=1 limit=6 seconds
Version identifier: 22.1.2.0 | 2024-11-26 | 0edbb82fd
CPXPARAM_Simplex_PGradient                       4
CPXPARAM_Preprocessing_Dual                      1
CPXPARAM_Threads                                 8
CPXPARAM_Parallel                                1
CPXPARAM_MIP_Cuts_Cliques                        1
CPXPARAM_MIP_Cuts_FlowCovers                     -1
CPXPARAM_MIP_Cuts_Implied                        2
CPXPARAM_MIP_Limits_GomoryCand                   25
CPXPARAM_MIP_Cuts_PathCut                        1
CPXPARAM_MIP_Cuts_MIRCut                         2
CPXPARAM_MIP_Cuts_Disjunctive                    1
CPXPARAM_Emphasis_MIP                            3
CPXPARAM_MIP_Strategy_RINSHeur                   -1
CPXPARAM_TimeLimit                               5
CPXPARAM_MIP_Limits_CutsFactor                   1
Found incumbent of value 157344.610330 after 0.00 sec. (0.02 ticks)
Tried aggregator 1 time.
MIP Presolve eliminated 0 rows and 3 columns.
Reduced MIP has 13 rows, 148 columns, and 1682 nonzeros.
Reduced MIP has 145 binaries, 2 generals, 0 SOSs, and 0 indicators.
Presolve time = 0.00 sec. (0.84 ticks)
Probing time = 0.00 sec. (0.09 ticks)
Tried aggregator 1 time.
Detecting symmetries...
Reduced MIP has 13 rows, 148 columns, and 1682 nonzeros.
Reduced MIP has 145 binaries, 2 generals, 0 SOSs, and 0 indicators.
Presolve time = 0.00 sec. (0.79 ticks)
Probing time = 0.00 sec. (0.09 ticks)
MIP emphasis: best bound.
MIP search method: dynamic search.
Parallel mode: deterministic, using up to 8 threads.
Root relaxation solution time = 0.00 sec. (2.08 ticks)

        Nodes                                         Cuts/
   Node  Left     Objective  IInf  Best Integer    Best Bound    ItCnt     Gap

*     0+    0                       157344.6103        0.0000           100.00%
*     0+    0                        51840.4943        0.0000           100.00%
      0     0    10482.7953    12    51840.4943    10482.7953      138   79.78%
*     0+    0                        19197.4680    10482.7953            45.39%
*     0+    0                        15240.3317    10482.7953            31.22%
*     0+    0                        14372.8713    10482.7953            27.07%
Detecting symmetries...
      0     2    10482.7953    12    14372.8713    10513.0180      138   26.86%
Elapsed time = 0.02 sec. (8.34 ticks, tree = 0.02 MB, solutions = 5)
*     5+    1                        13279.7434    10526.8584            20.73%
*    20+    7                        12915.1000    10526.8584            18.49%
*   408+  281                        12722.7434    10637.5738            16.39%
*  1008+  667                        12536.2311    10655.9893            15.00%
*  1061+  637                        12517.9319    10700.0198            14.52%

Performing restart 1

Repeating presolve.
Tried aggregator 1 time.
MIP Presolve eliminated 0 rows and 33 columns.
Reduced MIP has 13 rows, 115 columns, and 1256 nonzeros.
Reduced MIP has 112 binaries, 2 generals, 0 SOSs, and 0 indicators.
Presolve time = 0.00 sec. (0.45 ticks)
Tried aggregator 1 time.
Reduced MIP has 13 rows, 115 columns, and 1256 nonzeros.
Reduced MIP has 112 binaries, 2 generals, 0 SOSs, and 0 indicators.
Presolve time = 0.00 sec. (0.57 ticks)
Represolve time = 0.00 sec. (1.40 ticks)
*  2548+  111                        12464.1000    10747.9884            13.77%
*  4124+ 1330                        12235.2561    10755.1299            12.10%
*  4890+ 1851                        12180.1000    10779.1377            11.50%
  15514 11938    11063.5122    12    12180.1000    10974.7050    94304    9.90%
* 21652+17143                        12102.2561    11020.4949             8.94%
* 27538+22213                        11801.1857    11052.0953             6.35%

Performing restart 2

Repeating presolve.
Tried aggregator 1 time.
MIP Presolve eliminated 0 rows and 18 columns.
Reduced MIP has 13 rows, 97 columns, and 1030 nonzeros.
Reduced MIP has 95 binaries, 1 generals, 0 SOSs, and 0 indicators.
Presolve time = 0.00 sec. (0.35 ticks)
Tried aggregator 1 time.
Reduced MIP has 13 rows, 97 columns, and 1030 nonzeros.
Reduced MIP has 95 binaries, 1 generals, 0 SOSs, and 0 indicators.
Presolve time = 0.00 sec. (0.46 ticks)
Represolve time = 0.01 sec. (1.37 ticks)
  35590    38    10665.8758    12    11801.1857    11103.1270   236621    5.92%
  56746 18610        cutoff          11801.1857    11103.1270   362613    5.92%
  79094 39130    11214.7886    10    11801.1857    11159.2873   504388    5.44%
 100754 57329    11269.0794    12    11801.1857    11213.8212   632836    4.98%
 122464 76487    11305.9116    12    11801.1857    11251.3578   769551    4.66%
 144220 94887    11445.2720    12    11801.1857    11281.2692   902981    4.41%
 165945 111593    11594.8438    11    11801.1857    11306.3537  1026517    4.19%
 187585 129130    11379.1233    12    11801.1857    11327.3274  1157730    4.02%
 272666 194233    11401.4993    12    11801.1857    11389.7920  1668448    3.49%
Elapsed time = 3.46 sec. (3107.96 ticks, tree = 44.86 MB, solutions = 22)
 348747 246411    11551.7088    10    11801.1857    11430.6512  2100611    3.14%

Clique cuts applied:  0
Implied bound cuts applied:  0
Mixed integer rounding cuts applied:  0
Flow path cuts applied:  0
Disjunctive cuts applied:  0
Cone linearizations applied:  0

Root node processing (before b&c):
  Real time             =    0.02 sec. (8.30 ticks)
Parallel b&c, 8 threads:
  Real time             =    4.99 sec. (4330.56 ticks)
  Sync time (average)   =    0.93 sec.
  Wait time (average)   =    0.00 sec.
                          ------------
Total (root+branch&cut) =    5.00 sec. (4338.86 ticks)
Gap: 3.1%
Upper bound: 11801.2
Lower bound: 11435.6
Termination status: Normal
End of CPLEX run. Time: 5.00282 seconds
